38937 40272 
38702 40318 
38660 40563 
38055 40715 
39913 39502 
39405 39951 
37825 40769 
38844 40311 
38425 40575 
37873 40753 
39148 40111 
40002 39483 
39835 39655 
38157 40639 
37678 40799 
38670 40341 
37522 40949 
39552 39682 
39452 39829 
37287 40961 
36737 41003 
36616 41035 
39511 39791 
38669 40446 
39959 39485 
39451 39934 
39245 39967 
36381 41047 
38416 40601 
38876 40308 
40225 39096 
39229 39997 
39187 40088 
39547 39750 
40166 39300 
40030 39380 
40197 39208 
39709 39660 
40656 38684 
40877 38219 
40503 38844 
40682 38503 
40846 38311 
40582 38790 
40839 38372 
40808 38464 
41023 38120 
40992 38212 
40416 38892 
40387 39074 
40684 38465 
39899 39526 
